124
999
87
0 4
0 6
0 49
0 67
0 71
1 3
1 18
1 23
1 27
1 51
1 66
1 72
1 99
1 110
2 5
2 11
2 12
2 13
2 21
2 43
2 58
2 61
2 75
2 93
3 8
3 10
3 14
3 15
3 17
3 19
3 20
3 22
3 24
3 27
3 30
3 40
3 51
3 74
3 79
3 81
3 89
3 92
3 102
3 103
3 112
3 115
3 116
4 6
4 7
4 9
4 10
4 16
4 18
4 23
4 36
4 37
4 49
4 67
4 71
4 79
4 82
4 83
4 84
4 119
5 11
5 12
5 13
5 21
5 40
5 43
5 54
5 56
5 59
5 60
5 62
5 63
5 69
5 76
5 122
6 7
6 9
6 10
6 16
6 18
6 23
6 36
6 37
6 49
6 67
6 71
6 80
6 85
7 9
7 10
7 16
7 18
7 23
7 24
7 29
7 30
7 78
7 81
7 91
7 116
8 14
8 15
8 17
8 19
8 20
8 22
8 28
8 77
9 10
9 16
9 18
9 23
9 24
9 29
9 30
9 33
9 34
9 35
9 38
9 39
9 47
9 55
9 61
9 78
9 81
9 91
9 116
10 16
10 18
10 23
10 24
10 29
10 30
10 40
10 74
10 78
10 81
10 91
10 115
10 116
11 12
11 13
11 21
11 25
11 27
11 43
11 58
11 61
11 75
11 93
11 108
12 13
12 21
12 25
12 27
12 43
12 108
13 21
13 25
13 27
13 40
13 43
13 54
13 56
13 59
13 60
13 62
13 63
13 108
14 15
14 17
14 19
14 20
14 22
14 28
14 34
14 41
14 44
14 45
14 61
14 71
14 75
14 76
14 77
15 17
15 19
15 20
15 22
15 28
15 33
15 35
15 38
15 39
15 46
15 55
15 77
15 85
15 95
15 109
15 114
15 117
15 123
16 18
16 23
16 36
16 37
16 80
16 85
17 19
17 20
17 22
17 28
17 33
17 35
17 38
17 39
17 46
17 55
17 77
18 23
18 66
18 72
18 99
18 110
19 20
19 22
19 34
19 41
19 44
19 45
19 61
20 22
20 33
20 35
20 38
20 39
20 46
20 55
20 85
20 95
20 109
20 114
20 117
20 123
21 40
21 42
21 43
21 47
21 54
21 56
21 59
21 60
21 62
21 63
21 65
21 69
21 70
21 76
21 86
21 98
21 122
22 33
22 35
22 38
22 39
22 46
22 55
23 36
23 37
23 66
23 72
23 80
23 85
23 99
23 110
24 29
24 30
24 40
24 41
24 48
24 49
24 51
24 54
24 56
24 57
24 64
24 67
24 71
24 74
24 78
24 81
24 87
24 91
24 97
24 109
24 115
24 116
25 26
25 27
25 28
25 31
25 50
25 77
25 88
25 100
25 108
26 27
26 28
26 31
26 50
26 77
26 88
26 100
26 108
27 28
27 31
27 50
27 51
27 77
27 88
27 100
27 108
28 31
28 50
28 77
28 88
28 100
28 108
29 30
29 78
29 81
29 91
29 116
30 40
30 74
30 78
30 81
30 91
30 115
30 116
31 32
31 36
31 37
31 50
31 52
31 77
31 88
31 89
31 100
31 108
32 36
32 37
32 50
32 52
32 89
33 34
33 35
33 38
33 39
33 46
33 47
33 55
33 61
33 77
33 78
33 81
33 88
33 90
33 91
33 100
33 101
33 105
33 108
33 116
33 119
33 120
34 35
34 38
34 39
34 41
34 44
34 45
34 47
34 55
34 61
34 71
34 75
34 76
35 37
35 38
35 39
35 46
35 47
35 55
35 61
35 62
35 88
35 90
35 91
35 106
35 118
35 121
35 122
36 37
36 50
36 52
36 89
37 38
37 46
37 50
37 52
37 55
37 80
37 85
37 89
37 118
37 121
37 122
38 39
38 46
38 47
38 55
38 61
38 118
38 121
38 122
39 46
39 47
39 55
39 61
39 85
39 95
39 109
39 114
39 117
39 123
40 48
40 49
40 51
40 54
40 56
40 59
40 60
40 62
40 63
40 69
40 74
40 76
40 81
40 115
40 116
40 122
41 44
41 45
41 48
41 49
41 51
41 57
41 61
41 64
41 67
41 68
41 71
41 75
41 76
41 87
41 93
41 94
41 97
41 109
41 117
41 118
42 43
42 47
42 65
42 66
42 70
42 72
42 73
42 86
42 98
42 99
42 110
42 111
43 47
43 65
43 66
43 70
43 72
43 73
43 86
43 98
43 99
43 110
43 111
44 45
44 61
44 64
44 67
44 68
44 71
44 75
44 76
44 87
44 93
44 94
44 97
44 109
44 117
44 118
45 61
46 55
46 118
46 121
46 122
47 50
47 52
47 53
47 55
47 58
47 61
47 65
47 66
47 70
47 72
47 73
47 86
47 98
47 99
47 110
47 111
48 49
48 51
48 54
48 56
48 57
48 64
48 67
48 71
48 87
48 97
48 109
49 51
49 54
49 56
49 57
49 64
49 67
49 71
49 87
49 97
49 109
50 52
50 53
50 55
50 58
50 61
50 77
50 88
50 89
50 100
50 108
51 54
51 56
51 57
51 64
51 67
51 71
51 87
51 97
51 109
52 53
52 55
52 58
52 61
52 89
53 55
53 58
53 61
54 56
54 59
54 60
54 62
54 63
55 58
55 61
55 118
55 121
55 122
56 59
56 60
56 62
56 63
56 106
56 107
57 64
57 67
57 71
57 87
57 97
57 109
58 61
58 75
58 93
59 60
59 62
59 63
60 62
60 63
60 65
60 66
60 83
60 102
60 114
61 75
61 93
62 63
62 88
62 90
62 91
62 106
62 107
63 106
63 107
64 67
64 68
64 71
64 75
64 87
64 93
64 94
64 97
64 109
64 117
64 118
65 66
65 70
65 72
65 73
65 74
65 83
65 86
65 98
65 99
65 102
65 110
65 111
65 114
66 70
66 72
66 73
66 74
66 83
66 86
66 98
66 99
66 102
66 110
66 111
66 114
67 68
67 71
67 75
67 87
67 93
67 94
67 97
67 109
67 117
67 118
68 71
68 75
68 87
68 93
68 94
68 97
68 109
68 117
68 118
69 76
69 122
70 72
70 73
70 74
70 86
70 98
70 99
70 102
70 110
70 111
70 114
71 75
71 76
71 87
71 93
71 94
71 97
71 109
71 117
71 118
72 73
72 74
72 86
72 98
72 99
72 102
72 110
72 111
72 114
73 74
73 86
73 98
73 99
73 102
73 110
73 111
73 114
74 79
74 81
74 89
74 92
74 102
74 103
74 112
74 114
74 115
74 116
75 76
75 87
75 93
75 94
75 97
75 109
75 117
75 118
76 122
77 78
77 81
77 88
77 90
77 91
77 100
77 101
77 108
77 116
78 81
78 88
78 90
78 91
78 100
78 101
78 108
78 116
79 80
79 82
79 83
79 84
79 86
79 89
79 92
79 95
79 96
79 98
79 99
79 102
79 103
79 110
79 111
79 112
79 113
79 115
79 119
80 85
80 86
80 89
80 92
80 98
80 99
80 103
80 110
80 111
80 112
80 113
80 115
81 88
81 90
81 91
81 100
81 101
81 108
81 115
81 116
82 83
82 84
82 87
82 93
82 94
82 118
82 119
82 122
83 84
83 87
83 93
83 94
83 102
83 114
83 118
83 119
83 122
84 119
85 95
85 109
85 114
85 117
85 123
86 89
86 92
86 95
86 96
86 98
86 99
86 103
86 110
86 111
86 112
86 113
86 115
87 93
87 94
87 97
87 109
87 117
87 118
87 119
87 122
88 90
88 91
88 100
88 101
88 106
88 108
88 116
89 92
89 95
89 96
89 98
89 99
89 102
89 103
89 110
89 111
89 112
89 113
89 115
90 91
90 100
90 101
90 106
90 108
90 116
91 100
91 101
91 106
91 108
91 116
92 95
92 96
92 98
92 99
92 102
92 103
92 110
92 111
92 112
92 113
92 115
93 94
93 97
93 109
93 117
93 118
93 119
93 122
94 97
94 109
94 117
94 118
94 119
94 122
95 96
95 109
95 114
95 117
95 123
97 102
97 104
97 106
97 107
97 109
97 114
97 117
97 118
98 99
98 100
98 101
98 103
98 105
98 110
98 111
98 112
98 113
98 115
99 100
99 101
99 103
99 105
99 110
99 111
99 112
99 113
99 115
100 101
100 103
100 105
100 108
100 116
100 119
100 120
101 103
101 105
101 108
101 116
101 119
101 120
102 103
102 104
102 106
102 107
102 109
102 112
102 114
102 115
102 117
103 105
103 110
103 111
103 112
103 113
103 115
104 106
104 107
104 109
104 114
104 117
105 108
105 116
105 119
105 120
106 107
106 109
106 114
106 117
107 109
107 114
107 117
108 116
108 119
108 120
109 114
109 117
109 118
109 123
110 111
110 112
110 113
110 115
111 112
111 113
111 115
112 113
112 115
113 115
114 117
114 123
115 116
116 119
116 120
117 118
117 123
118 119
118 121
118 122
119 120
119 122
121 122
0 1
2 3
4
5
6
7
8 9
10 11
12
13 14
15
16 17
18
19
20 21
22 23
24 25
26
27 28
29
30
31
32 33
34
35 36
37 38
39 40
41 42
43 44
45
46
47 48
49 50
51
52
53
54
55 56
57
58
59
60 61
62
63
64 65
66 67
68
69
70
71 72
73
74 75
76
77
78 79
80
81
82
83
84
85
86 87
88
89 90
91 92
93
94
95
96
97 98
99 100
101
102 103
104
105 106
107
108 109
110
111
112
113 114
115 116
117 118
119
120
121
122 123
